N = 13;
H = 6;
T = 2;

avail = array3d(1..N, 1..H, 1..T, [7, 10, 4, 9, 3, 7, 0, 7, 0, 7, 7, 7, 8, 9, 9, 3, 9, 3, 9, 8, 6, 0, 1, 9, 8, 10, 10, 10, 0, 8, 3, 9, 7, 5, 4, 3, 3, 8, 1, 8, 4, 3, 6, 5, 1, 2, 0, 7, 8, 6, 4, 1, 7, 2, 9, 1, 3, 0, 5, 1, 1, 6, 8, 9, 10, 6, 9, 9, 7, 8, 4, 0, 1, 1, 6, 8, 6, 4, 10, 0, 5, 0, 0, 2, 5, 2, 7, 8, 5, 2, 10, 6, 4, 1, 6, 2, 7, 3, 0, 7, 9, 1, 0, 3, 4, 8, 2, 4, 8, 0, 8, 7, 8, 4, 0, 4, 1, 7, 2, 7, 7, 7, 0, 0, 1, 7, 5, 10, 10, 7, 4, 6, 3, 10, 9, 8, 4, 9, 7, 8, 10, 7, 6, 1, 9, 10, 3, 2, 3, 10, 7, 0, 2, 1, 4, 0]);

r = array2d(1..H, 1..T, [3, 6, 5, 5, 3, 0, 0, 3, 5, 2, 1, 4]);
